0_instance_selection/optil_deployment/lite/full/vc-lite_014.gr
p td 1490 2680
1 1391
1 385
1 417
1 760
1 1162
1 1290
1391 102
1391 1039
1391 1187
1391 1323
2 1392
2 220
2 323
2 373
2 386
2 587
2 1068
2 1153
2 1200
2 1274
1392 305
1392 451
1392 708
1392 731
1392 747
1392 868
3 1393
3 114
3 144
3 175
3 237
3 413
3 704
3 1010
3 1234
3 1386
1393 125
1393 343
1393 358
1393 581
1393 660
1393 711
1393 763
4 1394
4 289
4 465
4 489
4 622
4 634
4 720
4 1217
4 1236
4 1239
1394 330
1394 437
1394 445
1394 663
1394 666
1394 668
1394 836
1394 966
1394 1045
1394 1120
1394 1242
1394 1377
5 1395
5 628
5 703
5 790
5 994
5 999
5 1336
5 1353
1395 158
1395 167
1395 287
1395 300
1395 345
1395 952
6 1396
6 254
6 315
6 369
6 830
6 1048
1396 126
1396 203
1396 389
1396 664
1396 813
1396 846
1396 992
1396 1078
1396 1282
7 1397
7 121
7 504
7 608
7 777
7 779
7 937
7 1094
7 1159
7 1171
7 1188
7 1320
1397 808
1397 816
1397 1385
8 1398
8 301
8 390
8 541
8 878
8 1037
8 1066
8 1222
1398 119
1398 230
1398 332
1398 368
1398 431
1398 631
1398 962
9 1399
9 212
9 317
9 331
9 476
9 709
9 872
9 997
9 1095
1399 268
1399 485
1399 805
1399 1065
1399 1202
10 1400
10 311
10 550
10 563
10 843
10 860
10 916
10 990
10 1133
10 1349
10 1360
1400 325
1400 595
1400 623
1400 652
1400 1225
1400 1324
11 1401
11 235
11 260
11 338
11 643
11 662
11 780
11 811
11 934
11 1019
11 1176
11 1220
1401 216
1401 394
1401 657
1401 903
1401 1009
1401 1296
12 1402
12 143
12 239
12 416
12 492
12 496
12 642
12 1054
12 1091
12 1125
12 1212
12 1356
1402 408
1402 441
1402 520
1402 607
1402 649
1402 827
1402 864
1402 914
1402 1131
1402 1148
13 1403
13 245
13 279
13 694
13 774
13 1114
13 1169
13 1253
1403 139
1403 600
1403 621
1403 715
1403 877
1403 1240
14 1404
14 298
14 929
14 1102
14 1209
14 1275
1404 307
1404 419
1404 636
1404 672
1404 1077
1404 1330
15 1405
15 399
15 411
15 792
15 1031
15 1110
15 1327
15 1375
1405 115
1405 471
1405 543
16 1406
16 128
16 244
16 582
16 1167
16 1221
1406 161
1406 569
1406 770
1406 861
1406 1030
17 1407
17 486
17 1183
17 1318
17 1354
1407 326
1407 637
1407 874
1407 1023
1407 1074
1407 1291
18 1408
18 195
18 274
18 388
18 619
18 975
18 1180
18 1277
18 1288
18 1337
1408 123
1408 428
1408 832
1408 1295
1408 1368
19 1409
19 320
19 665
19 728
19 1006
19 1199
19 1219
19 1243
19 1344
1409 141
20 1410
20 689
20 717
20 723
20 1096
20 1263
20 1276
20 1370
1410 226
1410 253
1410 456
1410 980
21 1411
21 173
21 211
21 377
21 674
21 884
21 1014
1411 807
1411 855
1411 1103
22 1412
22 356
22 507
22 521
22 947
22 986
22 1203
1412 236
1412 329
1412 454
1412 553
1412 963
1412 1164
1412 1261
23 1413
23 366
23 756
23 1175
23 1207
1413 136
1413 176
1413 207
1413 267
1413 342
1413 633
1413 1055
1413 1369
24 1414
24 589
24 898
24 1053
24 1228
24 1289
1414 162
1414 241
1414 676
1414 681
1414 941
1414 1049
1414 1233
25 1415
25 111
25 149
25 201
25 327
25 625
25 810
25 904
25 1079
1415 281
1415 461
1415 838
1415 1005
1415 1232
26 1416
26 164
26 261
26 692
26 794
26 856
26 1002
26 1241
26 1247
1416 147
1416 948
1416 995
1416 1266
27 1417
27 1305
1417 296
1417 429
1417 433
1417 943
1417 1315
28 1418
28 509
28 545
28 688
28 835
28 1259
28 1302
1418 199
1418 530
1418 591
1418 954
1418 1134
1418 1357
29 1419
29 488
29 751
29 773
29 786
29 865
29 1303
1419 455
1419 802
1419 945
1419 983
1419 1345
30 1420
30 283
30 503
1420 478
1420 620
1420 686
1420 1334
1420 1382
31 1421
31 671
31 776
31 900
31 1050
31 1310
31 1366
1421 135
1421 304
1421 400
1421 414
1421 502
1421 524
1421 801
1421 1036
1421 1044
1421 1100
1421 1191
1421 1339
32 1422
32 280
32 592
32 612
32 944
32 1149
32 1151
32 1186
32 1251
1422 108
1422 120
1422 730
1422 991
1422 1034
33 1423
33 189
33 271
33 460
33 737
33 859
33 915
1423 246
1423 367
1423 402
1423 498
1423 506
1423 748
1423 1279
1423 1316
34 1424
34 202
34 282
34 438
34 448
34 766
34 818
34 821
34 974
34 1003
34 1061
34 1080
34 1156
1424 269
1424 336
1424 396
1424 421
1424 787
1424 1057
1424 1093
1424 1204
35 1425
35 705
35 710
35 1032
35 1067
35 1223
35 1338
1425 450
1425 825
1425 845
1425 1017
36 1426
36 137
36 155
36 397
36 401
1426 110
1426 130
1426 277
1426 291
1426 713
1426 791
1426 800
1426 819
1426 849
1426 863
1426 1062
37 1427
37 536
37 546
37 615
37 630
37 641
37 908
37 1362
1427 354
1427 410
1427 593
1427 726
1427 958
1427 1029
1427 1092
38 1428
38 749
38 1285
38 1373
1428 133
1428 286
1428 310
1428 526
1428 1083
1428 1104
1428 1343
39 1429
39 381
39 1052
39 1168
39 1238
1429 604
1429 648
1429 687
1429 804
1429 888
40 1430
40 829
40 853
40 922
40 1013
40 1090
40 1384
1430 477
1430 518
1430 533
1430 552
1430 753
1430 847
1430 862
41 1431
41 978
41 982
41 1152
41 1298
1431 180
1431 378
1431 579
1431 669
1431 765
1431 768
1431 1112
42 1432
42 499
42 1116
42 1293
1432 152
1432 515
1432 531
1432 605
1432 793
1432 968
1432 1027
43 1433
43 163
43 170
43 194
43 534
43 682
43 902
43 965
1433 554
1433 566
1433 696
1433 1115
1433 1299
1433 1309
1433 1322
1433 1329
1433 1359
44 1434
44 290
44 392
44 404
44 572
44 778
44 896
44 1313
44 1346
1434 148
1434 206
1434 229
1434 313
1434 500
1434 735
1434 1127
45 1435
45 352
45 384
45 423
45 470
45 479
45 647
45 817
1435 193
1435 848
1435 1358
1435 1378
1435 1388
46 1436
46 452
46 484
46 487
46 510
46 885
46 1271
1436 107
1436 971
1436 1352
47 1437
47 182
47 188
47 516
47 977
47 1038
47 1178
1437 145
1437 224
1437 459
1437 646
1437 955
1437 1069
1437 1213
48 1438
48 209
48 362
48 422
48 436
48 535
48 567
48 1088
48 1124
48 1380
1438 109
1438 1035
49 1439
49 106
49 418
49 493
49 938
49 969
1439 273
1439 951
1439 1257
1439 1335
50 1440
50 292
50 357
50 727
50 738
50 1072
50 1139
50 1160
50 1306
1440 190
1440 228
1440 655
1440 699
1440 873
1440 881
1440 1192
1440 1201
1440 1252
51 1441
51 374
51 1381
1441 644
1441 695
1441 722
1441 815
1441 950
1441 956
1441 985
1441 1135
1441 1193
52 1442
52 350
52 570
52 640
52 767
52 788
52 939
52 1205
1442 337
1442 675
1442 936
53 1443
53 178
53 243
53 266
53 426
53 462
1443 198
1443 407
1443 442
1443 482
1443 537
1443 558
1443 624
1443 650
1443 839
1443 1132
1443 1260
54 1444
54 346
54 474
54 886
1444 547
1444 586
1444 656
1444 891
1444 1165
1444 1245
55 1445
55 383
55 685
55 762
55 1021
55 1082
55 1244
1445 344
1445 365
1445 551
1445 654
1445 789
1445 837
1445 917
1445 946
56 1446
56 172
56 177
56 517
56 684
56 758
56 1262
1446 272
1446 314
1446 549
1446 795
1446 1020
1446 1040
1446 1292
1446 1328
57 1447
57 360
57 691
57 892
57 907
57 909
57 1208
57 1376
1447 169
1447 309
1447 468
1447 721
1447 858
1447 883
1447 901
1447 927
58 1448
58 256
58 303
58 588
58 964
58 988
58 1284
1448 270
1448 458
1448 467
1448 527
1448 544
1448 1015
1448 1237
1448 1365
59 1449
59 222
59 449
59 529
59 609
59 1143
59 1155
59 1227
59 1249
1449 197
1449 248
1449 844
1449 869
60 1450
60 217
60 219
60 308
60 328
60 557
60 897
60 1099
60 1119
60 1206
1450 171
1450 376
1450 556
1450 772
1450 803
1450 1058
1450 1142
61 1451
61 750
61 1046
61 1118
61 1163
61 1265
1451 154
1451 278
1451 739
1451 919
1451 924
62 1452
62 116
62 192
62 430
62 574
62 746
62 959
62 984
62 1311
1452 299
1452 495
1452 745
1452 923
1452 976
63 1453
63 440
63 899
63 1084
1453 409
1453 700
1453 743
1453 1007
64 1454
64 597
64 828
64 1137
64 1158
64 1371
1454 340
1454 371
1454 882
1454 1071
65 1455
65 511
65 740
65 967
1455 380
1455 453
1455 632
1455 771
1455 850
1455 1215
1455 1281
1455 1361
66 1456
66 118
66 297
66 395
66 480
66 1025
66 1097
66 1130
66 1374
1456 519
1456 706
1456 812
1456 1280
1456 1287
1456 1372
67 1457
67 112
67 129
67 183
67 221
67 316
67 339
67 548
67 599
67 718
67 831
67 1087
1457 375
1457 446
1457 473
1457 1166
68 1458
68 200
68 223
68 497
68 606
68 653
68 796
68 926
68 998
68 1150
68 1185
1458 425
1458 559
1458 565
1458 913
1458 1004
1458 1367
69 1459
69 185
69 294
69 351
69 744
69 1016
69 1145
69 1321
1459 259
1459 393
1459 464
1459 797
1459 912
1459 1059
1459 1101
1459 1273
1459 1333
70 1460
70 571
70 673
70 928
70 930
70 1076
70 1230
1460 295
1460 306
1460 372
1460 382
1460 712
1460 820
1460 993
1460 1042
1460 1128
1460 1138
1460 1190
1460 1196
1460 1314
1460 1355
71 1461
71 168
71 610
71 752
71 931
1461 150
1461 432
1461 523
1461 573
1461 707
1461 887
1461 1022
1461 1086
72 1462
72 667
72 970
72 1085
72 1147
72 1235
1462 265
1462 322
1462 505
1462 603
1462 1173
1462 1331
73 1463
1463 101
1463 252
1463 575
1463 1008
1463 1195
1463 1269
1463 1283
1463 1325
1463 1347
74 1464
74 186
74 255
74 293
74 359
74 466
74 932
74 981
74 1229
74 1297
1464 218
1464 693
1464 732
1464 1123
1464 1174
75 1465
75 379
75 415
75 639
75 659
75 798
75 875
75 894
75 925
75 1254
1465 124
1465 233
1465 249
1465 275
1465 564
1465 651
1465 957
1465 1210
1465 1307
76 1466
76 285
76 333
76 532
1466 113
1466 355
1466 585
1466 716
1466 823
1466 889
77 1467
77 208
77 319
77 321
77 457
77 472
77 761
77 857
77 1300
77 1304
77 1317
1467 187
1467 347
1467 391
1467 514
1467 580
1467 627
1467 1012
78 1468
78 104
78 138
78 205
78 525
78 911
78 1111
78 1189
78 1250
1468 754
1468 893
1468 1117
1468 1255
79 1469
79 191
79 443
79 834
79 1224
1469 481
1469 618
1469 972
1469 1063
80 1470
80 105
80 132
80 159
80 214
80 353
80 769
80 814
80 905
80 942
80 1106
80 1146
80 1198
1470 690
1470 782
1470 879
1470 1056
1470 1089
1470 1340
81 1471
81 539
81 561
81 833
81 961
81 1379
1471 364
1471 629
1471 677
1471 895
1471 1064
82 1472
82 250
82 555
82 602
82 614
82 757
82 920
82 989
1472 103
1472 906
1472 1218
83 1473
83 165
83 231
83 238
83 576
83 578
83 714
83 867
83 1105
83 1363
83 1390
1473 140
1473 406
1473 420
1473 584
1473 617
1473 635
1473 698
1473 949
1473 1154
1473 1216
1473 1272
84 1474
84 242
84 678
84 979
1474 439
1474 590
1474 680
1474 701
1474 1184
1474 1268
85 1475
85 783
85 866
85 1113
85 1256
1475 247
1475 302
1475 626
1475 890
86 1476
86 160
86 234
86 288
86 324
86 398
86 427
86 508
86 522
86 842
86 1267
1476 134
1476 335
1476 670
1476 683
1476 854
1476 1108
1476 1177
87 1477
87 258
87 284
87 447
87 613
87 679
87 724
87 1070
87 1348
87 1389
1477 117
1477 444
1477 540
1477 725
1477 733
1477 799
1477 1011
1477 1026
1477 1182
88 1478
88 276
88 312
88 512
88 1018
1478 318
1478 596
1478 781
1478 1033
1478 1231
1478 1342
89 1479
89 174
89 921
1479 142
1479 361
1479 852
1479 953
1479 1051
1479 1073
1479 1258
1479 1286
1479 1294
1479 1350
90 1480
90 658
90 1140
1480 424
1480 719
1480 871
91 1481
91 513
91 734
91 918
91 935
91 1000
91 1107
91 1161
91 1278
91 1308
1481 156
1481 387
1481 412
1481 435
1481 475
1481 870
92 1482
92 122
92 213
92 1043
92 1179
1482 179
1482 240
1482 263
1482 528
1482 645
1482 840
1482 880
1482 933
1482 940
1482 1144
1482 1341
1482 1351
93 1483
93 184
93 434
93 736
93 1141
1483 251
1483 341
1483 568
1483 661
1483 996
1483 1121
94 1484
94 181
94 257
94 598
94 611
94 697
94 1041
94 1246
94 1319
1484 131
1484 227
1484 483
1484 501
1484 601
1484 755
1484 1024
1484 1211
1484 1264
1484 1326
1484 1364
95 1485
95 204
95 225
95 490
95 560
95 577
95 638
95 764
95 1172
1485 262
1485 370
1485 987
1485 1028
1485 1075
1485 1332
96 1486
96 127
96 349
96 491
96 876
96 1126
1486 157
1486 232
1486 363
1486 583
1486 741
1486 775
1486 1098
1486 1136
97 1487
97 215
97 403
97 405
97 463
97 824
97 1270
97 1387
1487 151
1487 166
1487 702
1487 785
1487 809
1487 841
1487 973
1487 1001
1487 1047
1487 1226
98 1488
98 146
98 153
98 210
98 822
98 910
98 1214
1488 784
1488 1081
1488 1157
1488 1301
99 1489
99 538
99 562
99 806
99 826
99 851
99 960
99 1109
99 1129
99 1181
99 1197
1489 616
1489 1060
1489 1170
1489 1248
1489 1312
100 1490
100 1122
1490 196
1490 264
1490 334
1490 348
1490 469
1490 494
1490 542
1490 594
1490 729
1490 742
1490 759
1490 1194
1490 1383
101 102
101 103
102 103
104 105
104 106
105 106
107 108
107 109
108 109
110 111
110 112
111 112
113 114
113 115
114 115
116 117
116 118
117 118
119 120
119 121
120 121
122 123
122 124
123 124
125 126
125 127
126 127
128 129
128 130
129 130
131 132
131 133
132 133
134 135
134 136
135 136
137 138
137 139
138 139
140 141
140 142
141 142
143 144
143 145
144 145
146 147
146 148
147 148
149 150
149 151
150 151
152 153
152 154
153 154
155 156
155 157
156 157
158 159
158 160
159 160
161 162
161 163
162 163
164 165
164 166
165 166
167 168
167 169
168 169
170 171
170 172
171 172
173 174
173 175
174 175
176 177
176 178
177 178
179 180
179 181
180 181
182 183
182 184
183 184
185 186
185 187
186 187
188 189
188 190
189 190
191 192
191 193
192 193
194 195
194 196
195 196
197 198
197 199
198 199
200 201
200 202
201 202
203 204
203 205
204 205
206 207
206 208
207 208
209 210
209 211
210 211
212 213
212 214
213 214
215 216
215 217
216 217
218 219
218 220
219 220
221 222
221 223
222 223
224 225
224 226
225 226
227 228
227 229
228 229
230 231
230 232
231 232
233 234
233 235
234 235
236 237
236 238
237 238
239 240
239 241
240 241
242 243
242 244
243 244
245 246
245 247
246 247
248 249
248 250
249 250
251 252
251 253
252 253
254 255
254 256
255 256
257 258
257 259
258 259
260 261
260 262
261 262
263 264
263 265
264 265
266 267
266 268
267 268
269 270
269 271
270 271
272 273
272 274
273 274
275 276
275 277
276 277
278 279
278 280
279 280
281 282
281 283
282 283
284 285
284 286
285 286
287 288
287 289
288 289
290 291
290 292
291 292
293 294
293 295
294 295
296 297
296 298
297 298
299 300
299 301
300 301
302 303
302 304
303 304
305 306
305 307
306 307
308 309
308 310
309 310
311 312
311 313
312 313
314 315
314 316
315 316
317 318
317 319
318 319
320 321
320 322
321 322
323 324
323 325
324 325
326 327
326 328
327 328
329 330
329 331
330 331
332 333
332 334
333 334
335 336
335 337
336 337
338 339
338 340
339 340
341 342
341 343
342 343
344 345
344 346
345 346
347 348
347 349
348 349
350 351
350 352
351 352
353 354
353 355
354 355
356 357
356 358
357 358
359 360
359 361
360 361
362 363
362 364
363 364
365 366
365 367
366 367
368 369
368 370
369 370
371 372
371 373
372 373
374 375
374 376
375 376
377 378
377 379
378 379
380 381
380 382
381 382
383 384
383 385
384 385
386 387
386 388
387 388
389 390
389 391
390 391
392 393
392 394
393 394
395 396
395 397
396 397
398 399
398 400
399 400
401 402
401 403
402 403
404 405
404 406
405 406
407 408
407 409
408 409
410 411
410 412
411 412
413 414
413 415
414 415
416 417
416 418
417 418
419 420
419 421
420 421
422 423
422 424
423 424
425 426
425 427
426 427
428 429
428 430
429 430
431 432
431 433
432 433
434 435
434 436
435 436
437 438
437 439
438 439
440 441
440 442
441 442
443 444
443 445
444 445
446 447
446 448
447 448
449 450
449 451
450 451
452 453
452 454
453 454
455 456
455 457
456 457
458 459
458 460
459 460
461 462
461 463
462 463
464 465
464 466
465 466
467 468
467 469
468 469
470 471
470 472
471 472
473 474
473 475
474 475
476 477
476 478
477 478
479 480
479 481
480 481
482 483
482 484
483 484
485 486
485 487
486 487
488 489
488 490
489 490
491 492
491 493
492 493
494 495
494 496
495 496
497 498
497 499
498 499
500 501
500 502
501 502
503 504
503 505
504 505
506 507
506 508
507 508
509 510
509 511
510 511
512 513
512 514
513 514
515 516
515 517
516 517
518 519
518 520
519 520
521 522
521 523
522 523
524 525
524 526
525 526
527 528
527 529
528 529
530 531
530 532
531 532
533 534
533 535
534 535
536 537
536 538
537 538
539 540
539 541
540 541
542 543
542 544
543 544
545 546
545 547
546 547
548 549
548 550
549 550
551 552
551 553
552 553
554 555
554 556
555 556
557 558
557 559
558 559
560 561
560 562
561 562
563 564
563 565
564 565
566 567
566 568
567 568
569 570
569 571
570 571
572 573
572 574
573 574
575 576
575 577
576 577
578 579
578 580
579 580
581 582
581 583
582 583
584 585
584 586
585 586
587 588
587 589
588 589
590 591
590 592
591 592
593 594
593 595
594 595
596 597
596 598
597 598
599 600
599 601
600 601
602 603
602 604
603 604
605 606
605 607
606 607
608 609
608 610
609 610
611 612
611 613
612 613
614 615
614 616
615 616
617 618
617 619
618 619
620 621
620 622
621 622
623 624
623 625
624 625
626 627
626 628
627 628
629 630
629 631
630 631
632 633
632 634
633 634
635 636
635 637
636 637
638 639
638 640
639 640
641 642
641 643
642 643
644 645
644 646
645 646
647 648
647 649
648 649
650 651
650 652
651 652
653 654
653 655
654 655
656 657
656 658
657 658
659 660
659 661
660 661
662 663
662 664
663 664
665 666
665 667
666 667
668 669
668 670
669 670
671 672
671 673
672 673
674 675
674 676
675 676
677 678
677 679
678 679
680 681
680 682
681 682
683 684
683 685
684 685
686 687
686 688
687 688
689 690
689 691
690 691
692 693
692 694
693 694
695 696
695 697
696 697
698 699
698 700
699 700
701 702
701 703
702 703
704 705
704 706
705 706
707 708
707 709
708 709
710 711
710 712
711 712
713 714
713 715
714 715
716 717
716 718
717 718
719 720
719 721
720 721
722 723
722 724
723 724
725 726
725 727
726 727
728 729
728 730
729 730
731 732
731 733
732 733
734 735
734 736
735 736
737 738
737 739
738 739
740 741
740 742
741 742
743 744
743 745
744 745
746 747
746 748
747 748
749 750
749 751
750 751
752 753
752 754
753 754
755 756
755 757
756 757
758 759
758 760
759 760
761 762
761 763
762 763
764 765
764 766
765 766
767 768
767 769
768 769
770 771
770 772
771 772
773 774
773 775
774 775
776 777
776 778
777 778
779 780
779 781
780 781
782 783
782 784
783 784
785 786
785 787
786 787
788 789
788 790
789 790
791 792
791 793
792 793
794 795
794 796
795 796
797 798
797 799
798 799
800 801
800 802
801 802
803 804
803 805
804 805
806 807
806 808
807 808
809 810
809 811
810 811
812 813
812 814
813 814
815 816
815 817
816 817
818 819
818 820
819 820
821 822
821 823
822 823
824 825
824 826
825 826
827 828
827 829
828 829
830 831
830 832
831 832
833 834
833 835
834 835
836 837
836 838
837 838
839 840
839 841
840 841
842 843
842 844
843 844
845 846
845 847
846 847
848 849
848 850
849 850
851 852
851 853
852 853
854 855
854 856
855 856
857 858
857 859
858 859
860 861
860 862
861 862
863 864
863 865
864 865
866 867
866 868
867 868
869 870
869 871
870 871
872 873
872 874
873 874
875 876
875 877
876 877
878 879
878 880
879 880
881 882
881 883
882 883
884 885
884 886
885 886
887 888
887 889
888 889
890 891
890 892
891 892
893 894
893 895
894 895
896 897
896 898
897 898
899 900
899 901
900 901
902 903
902 904
903 904
905 906
905 907
906 907
908 909
908 910
909 910
911 912
911 913
912 913
914 915
914 916
915 916
917 918
917 919
918 919
920 921
920 922
921 922
923 924
923 925
924 925
926 927
926 928
927 928
929 930
929 931
930 931
932 933
932 934
933 934
935 936
935 937
936 937
938 939
938 940
939 940
941 942
941 943
942 943
944 945
944 946
945 946
947 948
947 949
948 949
950 951
950 952
951 952
953 954
953 955
954 955
956 957
956 958
957 958
959 960
959 961
960 961
962 963
962 964
963 964
965 966
965 967
966 967
968 969
968 970
969 970
971 972
971 973
972 973
974 975
974 976
975 976
977 978
977 979
978 979
980 981
980 982
981 982
983 984
983 985
984 985
986 987
986 988
987 988
989 990
989 991
990 991
992 993
992 994
993 994
995 996
995 997
996 997
998 999
998 1000
999 1000
1001 1002
1001 1003
1002 1003
1004 1005
1004 1006
1005 1006
1007 1008
1007 1009
1008 1009
1010 1011
1010 1012
1011 1012
1013 1014
1013 1015
1014 1015
1016 1017
1016 1018
1017 1018
1019 1020
1019 1021
1020 1021
1022 1023
1022 1024
1023 1024
1025 1026
1025 1027
1026 1027
1028 1029
1028 1030
1029 1030
1031 1032
1031 1033
1032 1033
1034 1035
1034 1036
1035 1036
1037 1038
1037 1039
1038 1039
1040 1041
1040 1042
1041 1042
1043 1044
1043 1045
1044 1045
1046 1047
1046 1048
1047 1048
1049 1050
1049 1051
1050 1051
1052 1053
1052 1054
1053 1054
1055 1056
1055 1057
1056 1057
1058 1059
1058 1060
1059 1060
1061 1062
1061 1063
1062 1063
1064 1065
1064 1066
1065 1066
1067 1068
1067 1069
1068 1069
1070 1071
1070 1072
1071 1072
1073 1074
1073 1075
1074 1075
1076 1077
1076 1078
1077 1078
1079 1080
1079 1081
1080 1081
1082 1083
1082 1084
1083 1084
1085 1086
1085 1087
1086 1087
1088 1089
1088 1090
1089 1090
1091 1092
1091 1093
1092 1093
1094 1095
1094 1096
1095 1096
1097 1098
1097 1099
1098 1099
1100 1101
1100 1102
1101 1102
1103 1104
1103 1105
1104 1105
1106 1107
1106 1108
1107 1108
1109 1110
1109 1111
1110 1111
1112 1113
1112 1114
1113 1114
1115 1116
1115 1117
1116 1117
1118 1119
1118 1120
1119 1120
1121 1122
1121 1123
1122 1123
1124 1125
1124 1126
1125 1126
1127 1128
1127 1129
1128 1129
1130 1131
1130 1132
1131 1132
1133 1134
1133 1135
1134 1135
1136 1137
1136 1138
1137 1138
1139 1140
1139 1141
1140 1141
1142 1143
1142 1144
1143 1144
1145 1146
1145 1147
1146 1147
1148 1149
1148 1150
1149 1150
1151 1152
1151 1153
1152 1153
1154 1155
1154 1156
1155 1156
1157 1158
1157 1159
1158 1159
1160 1161
1160 1162
1161 1162
1163 1164
1163 1165
1164 1165
1166 1167
1166 1168
1167 1168
1169 1170
1169 1171
1170 1171
1172 1173
1172 1174
1173 1174
1175 1176
1175 1177
1176 1177
1178 1179
1178 1180
1179 1180
1181 1182
1181 1183
1182 1183
1184 1185
1184 1186
1185 1186
1187 1188
1187 1189
1188 1189
1190 1191
1190 1192
1191 1192
1193 1194
1193 1195
1194 1195
1196 1197
1196 1198
1197 1198
1199 1200
1199 1201
1200 1201
1202 1203
1202 1204
1203 1204
1205 1206
1205 1207
1206 1207
1208 1209
1208 1210
1209 1210
1211 1212
1211 1213
1212 1213
1214 1215
1214 1216
1215 1216
1217 1218
1217 1219
1218 1219
1220 1221
1220 1222
1221 1222
1223 1224
1223 1225
1224 1225
1226 1227
1226 1228
1227 1228
1229 1230
1229 1231
1230 1231
1232 1233
1232 1234
1233 1234
1235 1236
1235 1237
1236 1237
1238 1239
1238 1240
1239 1240
1241 1242
1241 1243
1242 1243
1244 1245
1244 1246
1245 1246
1247 1248
1247 1249
1248 1249
1250 1251
1250 1252
1251 1252
1253 1254
1253 1255
1254 1255
1256 1257
1256 1258
1257 1258
1259 1260
1259 1261
1260 1261
1262 1263
1262 1264
1263 1264
1265 1266
1265 1267
1266 1267
1268 1269
1268 1270
1269 1270
1271 1272
1271 1273
1272 1273
1274 1275
1274 1276
1275 1276
1277 1278
1277 1279
1278 1279
1280 1281
1280 1282
1281 1282
1283 1284
1283 1285
1284 1285
1286 1287
1286 1288
1287 1288
1289 1290
1289 1291
1290 1291
1292 1293
1292 1294
1293 1294
1295 1296
1295 1297
1296 1297
1298 1299
1298 1300
1299 1300
1301 1302
1301 1303
1302 1303
1304 1305
1304 1306
1305 1306
1307 1308
1307 1309
1308 1309
1310 1311
1310 1312
1311 1312
1313 1314
1313 1315
1314 1315
1316 1317
1316 1318
1317 1318
1319 1320
1319 1321
1320 1321
1322 1323
1322 1324
1323 1324
1325 1326
1325 1327
1326 1327
1328 1329
1328 1330
1329 1330
1331 1332
1331 1333
1332 1333
1334 1335
1334 1336
1335 1336
1337 1338
1337 1339
1338 1339
1340 1341
1340 1342
1341 1342
1343 1344
1343 1345
1344 1345
1346 1347
1346 1348
1347 1348
1349 1350
1349 1351
1350 1351
1352 1353
1352 1354
1353 1354
1355 1356
1355 1357
1356 1357
1358 1359
1358 1360
1359 1360
1361 1362
1361 1363
1362 1363
1364 1365
1364 1366
1365 1366
1367 1368
1367 1369
1368 1369
1370 1371
1370 1372
1371 1372
1373 1374
1373 1375
1374 1375
1376 1377
1376 1378
1377 1378
1379 1380
1379 1381
1380 1381
1382 1383
1382 1384
1383 1384
1385 1386
1385 1387
1386 1387
1388 1389
1388 1390
1389 1390
