0_instance_selection/optil_deployment/lite/optil/private/vc-lite_014.out
s vc 1490 960
1
3
5
6
7
8
10
11
12
16
18
19
20
21
22
25
26
28
29
30
31
35
39
41
45
48
51
52
56
58
59
60
62
64
66
67
68
71
72
74
77
79
80
82
83
85
86
87
88
90
94
95
96
97
98
99
102
103
104
106
107
109
111
112
113
114
117
118
119
120
122
123
125
126
128
129
131
132
134
135
137
138
140
141
143
144
146
147
150
151
153
154
155
157
158
160
161
163
164
166
167
168
170
171
174
175
177
178
179
180
182
184
185
187
188
189
192
193
194
195
197
199
201
202
203
205
207
208
209
210
212
213
216
217
218
220
221
223
225
226
227
228
230
232
233
235
236
237
239
241
242
243
245
247
248
249
251
253
254
255
257
259
260
262
264
265
266
267
270
271
272
273
275
276
279
280
281
282
284
285
287
289
290
292
293
294
296
298
299
300
302
304
305
306
308
309
311
312
314
315
317
318
321
322
323
325
327
328
329
331
332
333
335
337
338
340
342
343
345
346
347
349
351
352
354
355
357
358
359
360
362
363
365
366
368
370
371
373
375
376
378
379
380
382
383
384
386
387
389
391
392
394
396
397
399
400
401
402
404
406
407
408
410
411
414
415
416
418
420
421
423
424
425
426
428
429
431
432
434
436
438
439
440
441
443
444
446
448
449
450
452
454
455
456
458
460
461
462
465
466
467
468
470
472
473
474
476
478
479
481
483
484
486
487
488
489
491
493
495
496
497
499
501
502
503
505
506
508
510
511
513
514
516
517
519
520
522
523
524
525
527
529
530
532
534
535
536
537
539
540
542
544
546
547
549
550
551
553
554
556
557
559
560
561
563
565
566
567
569
571
572
573
576
577
579
580
581
583
584
586
587
589
591
592
593
595
596
597
599
601
603
604
605
607
608
610
611
612
615
616
617
618
620
622
623
624
626
627
630
631
633
634
635
636
639
640
641
642
644
645
648
649
651
652
653
655
656
657
659
660
662
664
665
666
669
670
671
673
675
676
677
678
681
682
683
685
686
687
690
691
693
694
695
696
698
699
701
702
704
706
707
709
711
712
713
714
716
718
719
720
722
723
725
727
729
730
732
733
734
736
737
738
740
741
744
745
746
748
749
750
752
753
755
756
758
760
762
763
765
766
767
768
770
772
774
775
776
778
779
781
782
784
785
786
788
789
792
793
794
795
798
799
801
802
803
804
807
808
809
811
812
813
815
816
818
819
821
822
824
825
827
829
830
832
833
834
836
838
839
841
842
844
845
846
848
849
851
853
854
855
857
859
860
861
863
864
866
867
869
871
872
873
875
876
878
879
881
882
885
886
887
888
890
892
893
894
896
898
899
900
902
903
906
907
908
909
911
913
914
915
918
919
921
922
923
925
926
928
929
930
932
934
935
936
938
939
942
943
944
945
948
949
950
952
953
954
956
957
959
961
962
963
965
967
968
969
972
973
974
976
977
979
980
981
983
985
986
987
990
991
992
994
995
997
998
1000
1001
1003
1004
1005
1007
1009
1011
1012
1013
1015
1016
1017
1020
1021
1022
1024
1025
1026
1028
1030
1031
1033
1035
1036
1038
1039
1040
1042
1043
1044
1046
1047
1049
1050
1052
1053
1056
1057
1058
1060
1061
1063
1064
1065
1067
1068
1071
1072
1073
1075
1076
1078
1080
1081
1082
1084
1085
1086
1089
1090
1091
1093
1094
1095
1097
1098
1100
1102
1103
1104
1107
1108
1110
1111
1112
1114
1115
1116
1118
1119
1122
1123
1124
1125
1127
1128
1130
1131
1134
1135
1136
1137
1139
1141
1142
1143
1145
1146
1148
1149
1151
1153
1154
1156
1157
1158
1160
1161
1163
1164
1166
1167
1169
1170
1173
1174
1175
1177
1178
1179
1182
1183
1184
1186
1187
1189
1191
1192
1193
1194
1196
1198
1199
1200
1203
1204
1206
1207
1208
1209
1211
1212
1214
1216
1217
1218
1220
1222
1223
1225
1226
1228
1230
1231
1232
1233
1236
1237
1238
1239
1241
1243
1244
1245
1247
1248
1250
1251
1253
1254
1257
1258
1259
1261
1262
1264
1265
1266
1268
1270
1271
1272
1274
1275
1278
1279
1280
1282
1284
1285
1286
1287
1289
1291
1292
1293
1295
1296
1299
1300
1301
1303
1305
1306
1308
1309
1310
1312
1313
1315
1317
1318
1320
1321
1323
1324
1326
1327
1328
1329
1331
1332
1334
1335
1338
1339
1340
1342
1344
1345
1346
1348
1349
1350
1352
1354
1356
1357
1358
1359
1361
1362
1364
1365
1367
1368
1370
1372
1373
1375
1376
1378
1379
1380
1382
1384
1385
1386
1388
1389
1392
1394
1399
1403
1404
1405
1407
1413
1414
1417
1422
1423
1424
1426
1427
1428
1430
1432
1433
1434
1436
1437
1439
1440
1443
1444
1445
1447
1451
1453
1455
1459
1460
1463
1465
1466
1468
1471
1474
1479
1481
1482
1483
1490
